[runlim] version:		1.10
[runlim] time limit:		311040000 seconds
[runlim] real time limit:	600 seconds
[runlim] space limit:		14000 MB
[runlim] argv[0]:		python3
[runlim] argv[1]:		-u
[runlim] argv[2]:		mip.py
[runlim] argv[3]:		TUD200.3
[runlim] start:			Tue Jan 20 15:02:35 2026
[runlim] main pid:		74827
Building MIP model...
[runlim] sample:		10.0 time, 10.7 real, 31.4 MB
Build time: 17.57s
Solving MIP (minimizing number of labels)...
Version identifier: 22.1.1.0 | 2022-11-28 | 9160aff4d
CPXPARAM_Read_DataCheck                          1
Legacy callback                                  i
Tried aggregator 2 times.
MIP Presolve eliminated 160644 rows and 145 columns.
MIP Presolve modified 26451 coefficients.
Aggregator did 3620 substitutions.
Reduced MIP has 10202 rows, 3523 columns, and 137510 nonzeros.
Reduced MIP has 3523 binaries, 0 generals, 0 SOSs, and 0 indicators.
Presolve time = 0.70 sec. (1031.27 ticks)
Probing fixed 57 vars, tightened 0 bounds.
Probing changed sense of 5 constraints.
Probing time = 0.01 sec. (4.12 ticks)
Cover probing fixed 2 vars, tightened 0 bounds.
Tried aggregator 1 time.
Detecting symmetries...
MIP Presolve eliminated 244 rows and 60 columns.
MIP Presolve modified 214 coefficients.
Reduced MIP has 9958 rows, 3463 columns, and 132658 nonzeros.
Reduced MIP has 3463 binaries, 0 generals, 0 SOSs, and 0 indicators.
Presolve time = 0.12 sec. (171.60 ticks)
Probing fixed 4 vars, tightened 0 bounds.
Probing changed sense of 2 constraints.
Probing time = 0.01 sec. (4.43 ticks)
Clique table members: 13500.
MIP emphasis: balance optimality and feasibility.
MIP search method: dynamic search.
Parallel mode: deterministic, using up to 12 threads.
Root relaxation solution time = 0.96 sec. (1091.05 ticks)

        Nodes                                         Cuts/
   Node  Left     Objective  IInf  Best Integer    Best Bound    ItCnt     Gap

*     0+    0                           28.0000        2.0000            92.86%
      0     0       14.0000   448       28.0000       14.0000     6949   50.00%

========== NEW INCUMBENT SOLUTION ==========
{1: 128, 2: 366, 3: 736, 4: 498, 5: 128, 6: 366, 7: 30, 8: 268, 9: 470, 10: 708, 11: 478, 12: 240, 13: 736, 14: 498, 15: 414, 16: 652, 17: 170, 18: 408, 19: 680, 20: 442, 21: 778, 22: 540, 23: 414, 24: 652, 25: 414, 26: 652, 27: 680, 28: 442, 29: 764, 30: 526, 31: 366, 32: 128, 33: 366, 34: 128, 35: 338, 36: 100, 37: 736, 38: 498, 39: 652, 40: 414, 41: 100, 42: 338, 43: 30, 44: 268, 45: 268, 46: 30, 47: 282, 48: 44, 49: 736, 50: 498, 51: 268, 52: 30, 53: 366, 54: 128, 55: 540, 56: 778, 57: 414, 58: 652, 59: 100, 60: 338, 61: 338, 62: 100, 63: 540, 64: 778, 65: 44, 66: 282, 67: 100, 68: 338, 69: 282, 70: 44, 71: 128, 72: 366, 73: 498, 74: 736, 75: 736, 76: 498, 77: 100, 78: 338, 79: 100, 80: 338, 81: 736, 82: 498, 83: 44, 84: 282, 85: 498, 86: 736, 87: 498, 88: 736, 89: 498, 90: 736, 91: 366, 92: 128, 93: 268, 94: 30, 95: 366, 96: 128, 97: 170, 98: 408, 99: 478, 100: 240, 101: 652, 102: 414, 103: 100, 104: 338, 105: 282, 106: 44, 107: 778, 108: 540, 109: 414, 110: 652, 111: 268, 112: 30, 113: 680, 114: 442, 115: 142, 116: 380, 117: 708, 118: 470, 119: 380, 120: 142, 121: 408, 122: 170, 123: 30, 124: 268, 125: 540, 126: 778, 127: 764, 128: 526, 129: 44, 130: 282, 131: 408, 132: 170, 133: 128, 134: 366, 135: 268, 136: 30, 137: 498, 138: 736, 139: 100, 140: 338, 141: 540, 142: 778, 143: 778, 144: 540, 145: 778, 146: 540, 147: 442, 148: 680, 149: 366, 150: 128, 151: 338, 152: 100, 153: 652, 154: 414, 155: 414, 156: 652, 157: 128, 158: 366, 159: 338, 160: 100, 161: 540, 162: 778, 163: 268, 164: 30, 165: 30, 166: 268, 167: 254, 168: 16, 169: 366, 170: 128, 171: 652, 172: 414, 173: 30, 174: 268, 175: 736, 176: 498, 177: 540, 178: 778, 179: 478, 180: 240, 181: 128, 182: 366, 183: 100, 184: 338, 185: 652, 186: 414, 187: 268, 188: 30, 189: 736, 190: 498, 191: 30, 192: 268, 193: 414, 194: 652, 195: 268, 196: 30, 197: 470, 198: 708, 199: 338, 200: 100}
Number of labels used: 28
Total time: 19.61 sec
Memory: 189.09 MB
=============================================

========== NEW INCUMBENT SOLUTION ==========
{1: 128, 2: 366, 3: 736, 4: 498, 5: 128, 6: 366, 7: 30, 8: 268, 9: 470, 10: 708, 11: 478, 12: 240, 13: 736, 14: 498, 15: 414, 16: 652, 17: 170, 18: 408, 19: 680, 20: 442, 21: 778, 22: 540, 23: 414, 24: 652, 25: 414, 26: 652, 27: 680, 28: 442, 29: 764, 30: 526, 31: 366, 32: 128, 33: 366, 34: 128, 35: 338, 36: 100, 37: 736, 38: 498, 39: 652, 40: 414, 41: 100, 42: 338, 43: 30, 44: 268, 45: 268, 46: 30, 47: 282, 48: 44, 49: 736, 50: 498, 51: 268, 52: 30, 53: 366, 54: 128, 55: 540, 56: 778, 57: 414, 58: 652, 59: 100, 60: 338, 61: 338, 62: 100, 63: 540, 64: 778, 65: 44, 66: 282, 67: 100, 68: 338, 69: 282, 70: 44, 71: 128, 72: 366, 73: 498, 74: 736, 75: 736, 76: 498, 77: 100, 78: 338, 79: 100, 80: 338, 81: 736, 82: 498, 83: 44, 84: 282, 85: 498, 86: 736, 87: 498, 88: 736, 89: 498, 90: 736, 91: 366, 92: 128, 93: 268, 94: 30, 95: 366, 96: 128, 97: 170, 98: 408, 99: 478, 100: 240, 101: 652, 102: 414, 103: 100, 104: 338, 105: 282, 106: 44, 107: 778, 108: 540, 109: 414, 110: 652, 111: 268, 112: 30, 113: 680, 114: 442, 115: 142, 116: 380, 117: 708, 118: 470, 119: 380, 120: 142, 121: 408, 122: 170, 123: 30, 124: 268, 125: 540, 126: 778, 127: 764, 128: 526, 129: 44, 130: 282, 131: 408, 132: 170, 133: 128, 134: 366, 135: 268, 136: 30, 137: 498, 138: 736, 139: 100, 140: 338, 141: 540, 142: 778, 143: 778, 144: 540, 145: 778, 146: 540, 147: 442, 148: 680, 149: 366, 150: 128, 151: 338, 152: 100, 153: 652, 154: 414, 155: 414, 156: 652, 157: 128, 158: 366, 159: 338, 160: 100, 161: 540, 162: 778, 163: 268, 164: 30, 165: 30, 166: 268, 167: 254, 168: 16, 169: 366, 170: 128, 171: 652, 172: 414, 173: 30, 174: 268, 175: 736, 176: 498, 177: 540, 178: 778, 179: 478, 180: 240, 181: 128, 182: 366, 183: 100, 184: 338, 185: 652, 186: 414, 187: 268, 188: 30, 189: 736, 190: 498, 191: 30, 192: 268, 193: 414, 194: 652, 195: 268, 196: 30, 197: 470, 198: 708, 199: 338, 200: 100}
Number of labels used: 28
Total time: 19.62 sec
Memory: 189.20 MB
=============================================
[runlim] sample:		24.3 time, 20.7 real, 205.3 MB
*     0+    0                           24.0000       14.0000            41.67%

========== NEW INCUMBENT SOLUTION ==========
{1: 142, 2: 380, 3: 736, 4: 498, 5: 736, 6: 498, 7: 268, 8: 30, 9: 470, 10: 708, 11: 478, 12: 240, 13: 736, 14: 498, 15: 680, 16: 442, 17: 380, 18: 142, 19: 792, 20: 554, 21: 554, 22: 792, 23: 792, 24: 554, 25: 414, 26: 652, 27: 792, 28: 554, 29: 652, 30: 414, 31: 366, 32: 128, 33: 540, 34: 778, 35: 142, 36: 380, 37: 380, 38: 142, 39: 736, 40: 498, 41: 100, 42: 338, 43: 540, 44: 778, 45: 268, 46: 30, 47: 268, 48: 30, 49: 736, 50: 498, 51: 268, 52: 30, 53: 30, 54: 268, 55: 736, 56: 498, 57: 652, 58: 414, 59: 100, 60: 338, 61: 310, 62: 72, 63: 540, 64: 778, 65: 30, 66: 268, 67: 100, 68: 338, 69: 100, 70: 338, 71: 128, 72: 366, 73: 498, 74: 736, 75: 792, 76: 554, 77: 100, 78: 338, 79: 72, 80: 310, 81: 736, 82: 498, 83: 554, 84: 792, 85: 498, 86: 736, 87: 554, 88: 792, 89: 498, 90: 736, 91: 268, 92: 30, 93: 268, 94: 30, 95: 680, 96: 442, 97: 240, 98: 478, 99: 478, 100: 240, 101: 652, 102: 414, 103: 414, 104: 652, 105: 338, 106: 100, 107: 778, 108: 540, 109: 414, 110: 652, 111: 268, 112: 30, 113: 680, 114: 442, 115: 142, 116: 380, 117: 708, 118: 470, 119: 30, 120: 268, 121: 380, 122: 142, 123: 30, 124: 268, 125: 778, 126: 540, 127: 736, 128: 498, 129: 268, 130: 30, 131: 478, 132: 240, 133: 128, 134: 366, 135: 268, 136: 30, 137: 498, 138: 736, 139: 100, 140: 338, 141: 268, 142: 30, 143: 142, 144: 380, 145: 778, 146: 540, 147: 72, 148: 310, 149: 142, 150: 380, 151: 792, 152: 554, 153: 652, 154: 414, 155: 414, 156: 652, 157: 128, 158: 366, 159: 338, 160: 100, 161: 414, 162: 652, 163: 268, 164: 30, 165: 380, 166: 142, 167: 778, 168: 540, 169: 366, 170: 128, 171: 498, 172: 736, 173: 310, 174: 72, 175: 310, 176: 72, 177: 540, 178: 778, 179: 478, 180: 240, 181: 128, 182: 366, 183: 100, 184: 338, 185: 30, 186: 268, 187: 268, 188: 30, 189: 442, 190: 680, 191: 30, 192: 268, 193: 414, 194: 652, 195: 30, 196: 268, 197: 792, 198: 554, 199: 380, 200: 142}
Number of labels used: 24
Total time: 23.27 sec
Memory: 218.67 MB
=============================================
      0     0       14.0000    15       24.0000    Cliques: 1     7003   41.67%

========== NEW INCUMBENT SOLUTION ==========
{1: 142, 2: 380, 3: 736, 4: 498, 5: 736, 6: 498, 7: 268, 8: 30, 9: 470, 10: 708, 11: 478, 12: 240, 13: 736, 14: 498, 15: 680, 16: 442, 17: 380, 18: 142, 19: 792, 20: 554, 21: 554, 22: 792, 23: 792, 24: 554, 25: 414, 26: 652, 27: 792, 28: 554, 29: 652, 30: 414, 31: 366, 32: 128, 33: 540, 34: 778, 35: 142, 36: 380, 37: 380, 38: 142, 39: 736, 40: 498, 41: 100, 42: 338, 43: 540, 44: 778, 45: 268, 46: 30, 47: 268, 48: 30, 49: 736, 50: 498, 51: 268, 52: 30, 53: 30, 54: 268, 55: 736, 56: 498, 57: 652, 58: 414, 59: 100, 60: 338, 61: 310, 62: 72, 63: 540, 64: 778, 65: 30, 66: 268, 67: 100, 68: 338, 69: 100, 70: 338, 71: 128, 72: 366, 73: 498, 74: 736, 75: 792, 76: 554, 77: 100, 78: 338, 79: 72, 80: 310, 81: 736, 82: 498, 83: 554, 84: 792, 85: 498, 86: 736, 87: 554, 88: 792, 89: 498, 90: 736, 91: 268, 92: 30, 93: 268, 94: 30, 95: 680, 96: 442, 97: 240, 98: 478, 99: 478, 100: 240, 101: 652, 102: 414, 103: 414, 104: 652, 105: 338, 106: 100, 107: 778, 108: 540, 109: 414, 110: 652, 111: 268, 112: 30, 113: 680, 114: 442, 115: 142, 116: 380, 117: 708, 118: 470, 119: 30, 120: 268, 121: 380, 122: 142, 123: 30, 124: 268, 125: 778, 126: 540, 127: 736, 128: 498, 129: 268, 130: 30, 131: 478, 132: 240, 133: 128, 134: 366, 135: 268, 136: 30, 137: 498, 138: 736, 139: 100, 140: 338, 141: 268, 142: 30, 143: 142, 144: 380, 145: 778, 146: 540, 147: 72, 148: 310, 149: 142, 150: 380, 151: 792, 152: 554, 153: 652, 154: 414, 155: 414, 156: 652, 157: 128, 158: 366, 159: 338, 160: 100, 161: 414, 162: 652, 163: 268, 164: 30, 165: 380, 166: 142, 167: 778, 168: 540, 169: 366, 170: 128, 171: 498, 172: 736, 173: 310, 174: 72, 175: 310, 176: 72, 177: 540, 178: 778, 179: 478, 180: 240, 181: 128, 182: 366, 183: 100, 184: 338, 185: 30, 186: 268, 187: 268, 188: 30, 189: 442, 190: 680, 191: 30, 192: 268, 193: 414, 194: 652, 195: 30, 196: 268, 197: 792, 198: 554, 199: 380, 200: 142}
Number of labels used: 24
Total time: 23.28 sec
Memory: 218.67 MB
=============================================
*     0+    0                           16.0000       14.0000            12.50%

========== NEW INCUMBENT SOLUTION ==========
{1: 498, 2: 736, 3: 30, 4: 268, 5: 736, 6: 498, 7: 268, 8: 30, 9: 498, 10: 736, 11: 478, 12: 240, 13: 498, 14: 736, 15: 498, 16: 736, 17: 380, 18: 142, 19: 268, 20: 30, 21: 680, 22: 442, 23: 540, 24: 778, 25: 540, 26: 778, 27: 30, 28: 268, 29: 540, 30: 778, 31: 540, 32: 778, 33: 736, 34: 498, 35: 142, 36: 380, 37: 736, 38: 498, 39: 778, 40: 540, 41: 86, 42: 324, 43: 86, 44: 324, 45: 380, 46: 142, 47: 380, 48: 142, 49: 498, 50: 736, 51: 268, 52: 30, 53: 442, 54: 680, 55: 142, 56: 380, 57: 30, 58: 268, 59: 680, 60: 442, 61: 268, 62: 30, 63: 442, 64: 680, 65: 142, 66: 380, 67: 380, 68: 142, 69: 268, 70: 30, 71: 778, 72: 540, 73: 30, 74: 268, 75: 86, 76: 324, 77: 142, 78: 380, 79: 142, 80: 380, 81: 736, 82: 498, 83: 442, 84: 680, 85: 324, 86: 86, 87: 30, 88: 268, 89: 736, 90: 498, 91: 268, 92: 30, 93: 680, 94: 442, 95: 498, 96: 736, 97: 240, 98: 478, 99: 478, 100: 240, 101: 736, 102: 498, 103: 540, 104: 778, 105: 442, 106: 680, 107: 680, 108: 442, 109: 540, 110: 778, 111: 736, 112: 498, 113: 736, 114: 498, 115: 30, 116: 268, 117: 142, 118: 380, 119: 736, 120: 498, 121: 380, 122: 142, 123: 680, 124: 442, 125: 540, 126: 778, 127: 680, 128: 442, 129: 86, 130: 324, 131: 240, 132: 478, 133: 268, 134: 30, 135: 324, 136: 86, 137: 380, 138: 142, 139: 30, 140: 268, 141: 680, 142: 442, 143: 380, 144: 142, 145: 736, 146: 498, 147: 324, 148: 86, 149: 142, 150: 380, 151: 778, 152: 540, 153: 778, 154: 540, 155: 30, 156: 268, 157: 30, 158: 268, 159: 778, 160: 540, 161: 778, 162: 540, 163: 30, 164: 268, 165: 380, 166: 142, 167: 792, 168: 554, 169: 540, 170: 778, 171: 442, 172: 680, 173: 380, 174: 142, 175: 324, 176: 86, 177: 498, 178: 736, 179: 142, 180: 380, 181: 86, 182: 324, 183: 680, 184: 442, 185: 268, 186: 30, 187: 86, 188: 324, 189: 778, 190: 540, 191: 442, 192: 680, 193: 540, 194: 778, 195: 442, 196: 680, 197: 324, 198: 86, 199: 380, 200: 142}
Number of labels used: 16
Total time: 23.29 sec
Memory: 218.67 MB
=============================================

========== NEW INCUMBENT SOLUTION ==========
{1: 498, 2: 736, 3: 30, 4: 268, 5: 736, 6: 498, 7: 268, 8: 30, 9: 498, 10: 736, 11: 478, 12: 240, 13: 498, 14: 736, 15: 498, 16: 736, 17: 380, 18: 142, 19: 268, 20: 30, 21: 680, 22: 442, 23: 540, 24: 778, 25: 540, 26: 778, 27: 30, 28: 268, 29: 540, 30: 778, 31: 540, 32: 778, 33: 736, 34: 498, 35: 142, 36: 380, 37: 736, 38: 498, 39: 778, 40: 540, 41: 86, 42: 324, 43: 86, 44: 324, 45: 380, 46: 142, 47: 380, 48: 142, 49: 498, 50: 736, 51: 268, 52: 30, 53: 442, 54: 680, 55: 142, 56: 380, 57: 30, 58: 268, 59: 680, 60: 442, 61: 268, 62: 30, 63: 442, 64: 680, 65: 142, 66: 380, 67: 380, 68: 142, 69: 268, 70: 30, 71: 778, 72: 540, 73: 30, 74: 268, 75: 86, 76: 324, 77: 142, 78: 380, 79: 142, 80: 380, 81: 736, 82: 498, 83: 442, 84: 680, 85: 324, 86: 86, 87: 30, 88: 268, 89: 736, 90: 498, 91: 268, 92: 30, 93: 680, 94: 442, 95: 498, 96: 736, 97: 240, 98: 478, 99: 478, 100: 240, 101: 736, 102: 498, 103: 540, 104: 778, 105: 442, 106: 680, 107: 680, 108: 442, 109: 540, 110: 778, 111: 736, 112: 498, 113: 736, 114: 498, 115: 30, 116: 268, 117: 142, 118: 380, 119: 736, 120: 498, 121: 380, 122: 142, 123: 680, 124: 442, 125: 540, 126: 778, 127: 680, 128: 442, 129: 86, 130: 324, 131: 240, 132: 478, 133: 268, 134: 30, 135: 324, 136: 86, 137: 380, 138: 142, 139: 30, 140: 268, 141: 680, 142: 442, 143: 380, 144: 142, 145: 736, 146: 498, 147: 324, 148: 86, 149: 142, 150: 380, 151: 778, 152: 540, 153: 778, 154: 540, 155: 30, 156: 268, 157: 30, 158: 268, 159: 778, 160: 540, 161: 778, 162: 540, 163: 30, 164: 268, 165: 380, 166: 142, 167: 792, 168: 554, 169: 540, 170: 778, 171: 442, 172: 680, 173: 380, 174: 142, 175: 324, 176: 86, 177: 498, 178: 736, 179: 142, 180: 380, 181: 86, 182: 324, 183: 680, 184: 442, 185: 268, 186: 30, 187: 86, 188: 324, 189: 778, 190: 540, 191: 442, 192: 680, 193: 540, 194: 778, 195: 442, 196: 680, 197: 324, 198: 86, 199: 380, 200: 142}
Number of labels used: 16
Total time: 23.33 sec
Memory: 218.76 MB
=============================================
      0     0       14.0000    18       16.0000      Cuts: 28     7165   12.50%

========== NEW INCUMBENT SOLUTION ==========
{1: 498, 2: 736, 3: 30, 4: 268, 5: 736, 6: 498, 7: 268, 8: 30, 9: 498, 10: 736, 11: 478, 12: 240, 13: 498, 14: 736, 15: 498, 16: 736, 17: 380, 18: 142, 19: 268, 20: 30, 21: 680, 22: 442, 23: 540, 24: 778, 25: 540, 26: 778, 27: 30, 28: 268, 29: 540, 30: 778, 31: 540, 32: 778, 33: 736, 34: 498, 35: 142, 36: 380, 37: 736, 38: 498, 39: 778, 40: 540, 41: 86, 42: 324, 43: 86, 44: 324, 45: 380, 46: 142, 47: 380, 48: 142, 49: 498, 50: 736, 51: 268, 52: 30, 53: 442, 54: 680, 55: 142, 56: 380, 57: 30, 58: 268, 59: 680, 60: 442, 61: 268, 62: 30, 63: 442, 64: 680, 65: 142, 66: 380, 67: 380, 68: 142, 69: 268, 70: 30, 71: 778, 72: 540, 73: 30, 74: 268, 75: 86, 76: 324, 77: 142, 78: 380, 79: 142, 80: 380, 81: 736, 82: 498, 83: 442, 84: 680, 85: 324, 86: 86, 87: 30, 88: 268, 89: 736, 90: 498, 91: 268, 92: 30, 93: 680, 94: 442, 95: 498, 96: 736, 97: 240, 98: 478, 99: 478, 100: 240, 101: 736, 102: 498, 103: 540, 104: 778, 105: 442, 106: 680, 107: 680, 108: 442, 109: 540, 110: 778, 111: 736, 112: 498, 113: 736, 114: 498, 115: 30, 116: 268, 117: 142, 118: 380, 119: 736, 120: 498, 121: 380, 122: 142, 123: 680, 124: 442, 125: 540, 126: 778, 127: 680, 128: 442, 129: 86, 130: 324, 131: 240, 132: 478, 133: 268, 134: 30, 135: 324, 136: 86, 137: 380, 138: 142, 139: 30, 140: 268, 141: 680, 142: 442, 143: 380, 144: 142, 145: 736, 146: 498, 147: 324, 148: 86, 149: 142, 150: 380, 151: 778, 152: 540, 153: 778, 154: 540, 155: 30, 156: 268, 157: 30, 158: 268, 159: 778, 160: 540, 161: 778, 162: 540, 163: 30, 164: 268, 165: 380, 166: 142, 167: 792, 168: 554, 169: 540, 170: 778, 171: 442, 172: 680, 173: 380, 174: 142, 175: 324, 176: 86, 177: 498, 178: 736, 179: 142, 180: 380, 181: 86, 182: 324, 183: 680, 184: 442, 185: 268, 186: 30, 187: 86, 188: 324, 189: 778, 190: 540, 191: 442, 192: 680, 193: 540, 194: 778, 195: 442, 196: 680, 197: 324, 198: 86, 199: 380, 200: 142}
Number of labels used: 16
Total time: 23.33 sec
Memory: 218.76 MB
=============================================

========== NEW INCUMBENT SOLUTION ==========
{1: 498, 2: 736, 3: 30, 4: 268, 5: 736, 6: 498, 7: 268, 8: 30, 9: 498, 10: 736, 11: 478, 12: 240, 13: 498, 14: 736, 15: 498, 16: 736, 17: 380, 18: 142, 19: 268, 20: 30, 21: 680, 22: 442, 23: 540, 24: 778, 25: 540, 26: 778, 27: 30, 28: 268, 29: 540, 30: 778, 31: 540, 32: 778, 33: 736, 34: 498, 35: 142, 36: 380, 37: 736, 38: 498, 39: 778, 40: 540, 41: 86, 42: 324, 43: 86, 44: 324, 45: 380, 46: 142, 47: 380, 48: 142, 49: 498, 50: 736, 51: 268, 52: 30, 53: 442, 54: 680, 55: 142, 56: 380, 57: 30, 58: 268, 59: 680, 60: 442, 61: 268, 62: 30, 63: 442, 64: 680, 65: 142, 66: 380, 67: 380, 68: 142, 69: 268, 70: 30, 71: 778, 72: 540, 73: 30, 74: 268, 75: 86, 76: 324, 77: 142, 78: 380, 79: 142, 80: 380, 81: 736, 82: 498, 83: 442, 84: 680, 85: 324, 86: 86, 87: 30, 88: 268, 89: 736, 90: 498, 91: 268, 92: 30, 93: 680, 94: 442, 95: 498, 96: 736, 97: 240, 98: 478, 99: 478, 100: 240, 101: 736, 102: 498, 103: 540, 104: 778, 105: 442, 106: 680, 107: 680, 108: 442, 109: 540, 110: 778, 111: 736, 112: 498, 113: 736, 114: 498, 115: 30, 116: 268, 117: 142, 118: 380, 119: 736, 120: 498, 121: 380, 122: 142, 123: 680, 124: 442, 125: 540, 126: 778, 127: 680, 128: 442, 129: 86, 130: 324, 131: 240, 132: 478, 133: 268, 134: 30, 135: 324, 136: 86, 137: 380, 138: 142, 139: 30, 140: 268, 141: 680, 142: 442, 143: 380, 144: 142, 145: 736, 146: 498, 147: 324, 148: 86, 149: 142, 150: 380, 151: 778, 152: 540, 153: 778, 154: 540, 155: 30, 156: 268, 157: 30, 158: 268, 159: 778, 160: 540, 161: 778, 162: 540, 163: 30, 164: 268, 165: 380, 166: 142, 167: 792, 168: 554, 169: 540, 170: 778, 171: 442, 172: 680, 173: 380, 174: 142, 175: 324, 176: 86, 177: 498, 178: 736, 179: 142, 180: 380, 181: 86, 182: 324, 183: 680, 184: 442, 185: 268, 186: 30, 187: 86, 188: 324, 189: 778, 190: 540, 191: 442, 192: 680, 193: 540, 194: 778, 195: 442, 196: 680, 197: 324, 198: 86, 199: 380, 200: 142}
Number of labels used: 16
Total time: 25.40 sec
Memory: 223.50 MB
=============================================
      0     0       14.0000    14       16.0000    Cliques: 1     7336   12.50%

========== NEW INCUMBENT SOLUTION ==========
{1: 498, 2: 736, 3: 30, 4: 268, 5: 736, 6: 498, 7: 268, 8: 30, 9: 498, 10: 736, 11: 478, 12: 240, 13: 498, 14: 736, 15: 498, 16: 736, 17: 380, 18: 142, 19: 268, 20: 30, 21: 680, 22: 442, 23: 540, 24: 778, 25: 540, 26: 778, 27: 30, 28: 268, 29: 540, 30: 778, 31: 540, 32: 778, 33: 736, 34: 498, 35: 142, 36: 380, 37: 736, 38: 498, 39: 778, 40: 540, 41: 86, 42: 324, 43: 86, 44: 324, 45: 380, 46: 142, 47: 380, 48: 142, 49: 498, 50: 736, 51: 268, 52: 30, 53: 442, 54: 680, 55: 142, 56: 380, 57: 30, 58: 268, 59: 680, 60: 442, 61: 268, 62: 30, 63: 442, 64: 680, 65: 142, 66: 380, 67: 380, 68: 142, 69: 268, 70: 30, 71: 778, 72: 540, 73: 30, 74: 268, 75: 86, 76: 324, 77: 142, 78: 380, 79: 142, 80: 380, 81: 736, 82: 498, 83: 442, 84: 680, 85: 324, 86: 86, 87: 30, 88: 268, 89: 736, 90: 498, 91: 268, 92: 30, 93: 680, 94: 442, 95: 498, 96: 736, 97: 240, 98: 478, 99: 478, 100: 240, 101: 736, 102: 498, 103: 540, 104: 778, 105: 442, 106: 680, 107: 680, 108: 442, 109: 540, 110: 778, 111: 736, 112: 498, 113: 736, 114: 498, 115: 30, 116: 268, 117: 142, 118: 380, 119: 736, 120: 498, 121: 380, 122: 142, 123: 680, 124: 442, 125: 540, 126: 778, 127: 680, 128: 442, 129: 86, 130: 324, 131: 240, 132: 478, 133: 268, 134: 30, 135: 324, 136: 86, 137: 380, 138: 142, 139: 30, 140: 268, 141: 680, 142: 442, 143: 380, 144: 142, 145: 736, 146: 498, 147: 324, 148: 86, 149: 142, 150: 380, 151: 778, 152: 540, 153: 778, 154: 540, 155: 30, 156: 268, 157: 30, 158: 268, 159: 778, 160: 540, 161: 778, 162: 540, 163: 30, 164: 268, 165: 380, 166: 142, 167: 792, 168: 554, 169: 540, 170: 778, 171: 442, 172: 680, 173: 380, 174: 142, 175: 324, 176: 86, 177: 498, 178: 736, 179: 142, 180: 380, 181: 86, 182: 324, 183: 680, 184: 442, 185: 268, 186: 30, 187: 86, 188: 324, 189: 778, 190: 540, 191: 442, 192: 680, 193: 540, 194: 778, 195: 442, 196: 680, 197: 324, 198: 86, 199: 380, 200: 142}
Number of labels used: 16
Total time: 25.40 sec
Memory: 223.50 MB
=============================================

========== NEW INCUMBENT SOLUTION ==========
{1: 498, 2: 736, 3: 30, 4: 268, 5: 736, 6: 498, 7: 268, 8: 30, 9: 498, 10: 736, 11: 478, 12: 240, 13: 498, 14: 736, 15: 498, 16: 736, 17: 380, 18: 142, 19: 268, 20: 30, 21: 680, 22: 442, 23: 540, 24: 778, 25: 540, 26: 778, 27: 30, 28: 268, 29: 540, 30: 778, 31: 540, 32: 778, 33: 736, 34: 498, 35: 142, 36: 380, 37: 736, 38: 498, 39: 778, 40: 540, 41: 86, 42: 324, 43: 86, 44: 324, 45: 380, 46: 142, 47: 380, 48: 142, 49: 498, 50: 736, 51: 268, 52: 30, 53: 442, 54: 680, 55: 142, 56: 380, 57: 30, 58: 268, 59: 680, 60: 442, 61: 268, 62: 30, 63: 442, 64: 680, 65: 142, 66: 380, 67: 380, 68: 142, 69: 268, 70: 30, 71: 778, 72: 540, 73: 30, 74: 268, 75: 86, 76: 324, 77: 142, 78: 380, 79: 142, 80: 380, 81: 736, 82: 498, 83: 442, 84: 680, 85: 324, 86: 86, 87: 30, 88: 268, 89: 736, 90: 498, 91: 268, 92: 30, 93: 680, 94: 442, 95: 498, 96: 736, 97: 240, 98: 478, 99: 478, 100: 240, 101: 736, 102: 498, 103: 540, 104: 778, 105: 442, 106: 680, 107: 680, 108: 442, 109: 540, 110: 778, 111: 736, 112: 498, 113: 736, 114: 498, 115: 30, 116: 268, 117: 142, 118: 380, 119: 736, 120: 498, 121: 380, 122: 142, 123: 680, 124: 442, 125: 540, 126: 778, 127: 680, 128: 442, 129: 86, 130: 324, 131: 240, 132: 478, 133: 268, 134: 30, 135: 324, 136: 86, 137: 380, 138: 142, 139: 30, 140: 268, 141: 680, 142: 442, 143: 380, 144: 142, 145: 736, 146: 498, 147: 324, 148: 86, 149: 142, 150: 380, 151: 778, 152: 540, 153: 778, 154: 540, 155: 30, 156: 268, 157: 30, 158: 268, 159: 778, 160: 540, 161: 778, 162: 540, 163: 30, 164: 268, 165: 380, 166: 142, 167: 792, 168: 554, 169: 540, 170: 778, 171: 442, 172: 680, 173: 380, 174: 142, 175: 324, 176: 86, 177: 498, 178: 736, 179: 142, 180: 380, 181: 86, 182: 324, 183: 680, 184: 442, 185: 268, 186: 30, 187: 86, 188: 324, 189: 778, 190: 540, 191: 442, 192: 680, 193: 540, 194: 778, 195: 442, 196: 680, 197: 324, 198: 86, 199: 380, 200: 142}
Number of labels used: 16
Total time: 25.42 sec
Memory: 223.50 MB
=============================================
*     0     0      integral     0       14.0000      Cuts: 29     7369    0.00%
      0     0        cutoff             14.0000       14.0000     7369    0.00%
Elapsed time = 7.83 sec. (11601.53 ticks, tree = 0.01 MB, solutions = 4)

Clique cuts applied:  8
Zero-half cuts applied:  9

Root node processing (before b&c):
  Real time             =    7.83 sec. (11601.93 ticks)
Parallel b&c, 12 threads:
  Real time             =    0.00 sec. (0.00 ticks)
  Sync time (average)   =    0.00 sec.
  Wait time (average)   =    0.00 sec.
                          ------------
Total (root+branch&cut) =    7.83 sec. (11601.93 ticks)
Solution :
{498, 736, 30, 268, 736, 498, 142, 380, 498, 736, 478, 240, 498, 736, 498, 736, 380, 142, 268, 30, 680, 442, 540, 778, 540, 778, 30, 268, 540, 778, 540, 778, 736, 498, 142, 380, 736, 498, 778, 540, 86, 324, 86, 324, 380, 142, 380, 142, 498, 736, 268, 30, 442, 680, 142, 380, 30, 268, 680, 442, 268, 30, 442, 680, 142, 380, 380, 142, 268, 30, 778, 540, 30, 268, 86, 324, 142, 380, 142, 380, 736, 498, 442, 680, 324, 86, 30, 268, 736, 498, 268, 30, 680, 442, 680, 442, 240, 478, 478, 240, 736, 498, 540, 778, 442, 680, 680, 442, 540, 778, 736, 498, 736, 498, 30, 268, 142, 380, 736, 498, 380, 142, 680, 442, 540, 778, 680, 442, 324, 86, 240, 478, 268, 30, 324, 86, 380, 142, 30, 268, 680, 442, 86, 324, 736, 498, 324, 86, 142, 380, 778, 540, 778, 540, 30, 268, 30, 268, 778, 540, 778, 540, 30, 268, 380, 142, 540, 778, 540, 778, 736, 498, 380, 142, 30, 268, 498, 736, 142, 380, 86, 324, 680, 442, 268, 30, 86, 324, 778, 540, 442, 680, 540, 778, 442, 680, 324, 86, 380, 142}
Number of labels used: 14
[runlim] end:			Tue Jan 20 15:03:01 2026
[runlim] status:		ok
[runlim] result:		0
[runlim] children:		0
[runlim] real:			26.19 seconds
[runlim] time:			35.07 seconds
[runlim] space:			222.6 MB
[runlim] samples:		254
